(declare-const delta_a Int)
(declare-const delta_x Int)
(declare-const delta_y Int)
(declare-const delta_tmp___0 Int)
(assert (exists
         ((|tmp___0'?1?1| Int) (|a'?2?2| Int) (|y'?3?3| Int) (|x'?4?4| Int)
            (phi_y?5?5 Int) (phi_x?6?6 Int) (phi_a?7?7 Int) (phi_y?8?8 Int)
            (phi_x?9?9 Int) (havoc?10?10 Int) (a?11?11 Int) (x?12?12 Int)
            (y?13?13 Int) (tmp___0?14?14 Int) (flag?15?15 Int)
            (remainder?16 Int) (quotient?17 Int))
         (and (<= (- a?11?11) 0) (< (- x?12?12) 0) (< (- y?13?13) 0)
                (or (< havoc?10?10 0) (< (- havoc?10?10) 0))
                (or (and (or (< flag?15?15 0) (< (- flag?15?15) 0))
                           (= (+ (- phi_x?9?9) x?12?12 1) 0)
                           (= (+ (- phi_y?8?8) y?13?13) 0)
                           (= (+ (- phi_a?7?7) y?13?13 x?12?12) 0))
                      (and (= flag?15?15 0) (= (+ (- phi_x?9?9) x?12?12) 0)
                             (= (+ (- phi_y?8?8) y?13?13 1) 0)
                             (= (+ (- phi_a?7?7) y?13?13 x?12?12 1) 0)))
                (or (and (= (+ remainder?16 -1) 0)
                           (= (+ (- phi_x?6?6) phi_x?9?9) 0)
                           (= (+ (- phi_y?5?5) phi_y?8?8 1) 0))
                      (and (or (< (+ remainder?16 -1) 0)
                                 (< (- (+ remainder?16 -1)) 0))
                             (= (+ (- phi_x?6?6) phi_x?9?9 1) 0)
                             (= (+ (- phi_y?5?5) phi_y?8?8) 0)))
                (= (+ |tmp___0'?1?1| (- havoc?10?10)) 0)
                (= (+ |a'?2?2| (- phi_a?7?7)) 0)
                (= (+ |y'?3?3| (- phi_y?5?5)) 0)
                (= (+ |x'?4?4| (- phi_x?6?6)) 0)
                (= (+ delta_x (- (+ |x'?4?4| (- x?12?12)))) 0)
                (= (+ delta_y (- (+ |y'?3?3| (- y?13?13)))) 0)
                (= (+ delta_a (- (+ |a'?2?2| (- a?11?11)))) 0)
                (= (+ delta_tmp___0 (- (+ |tmp___0'?1?1| (- tmp___0?14?14)))) 0)
                (= phi_a?7?7 (+ (* 2 quotient?17) remainder?16))
                (<= 0 remainder?16)
                (or (<= remainder?16 (+ 2 -1)) (<= remainder?16 (+ -2 -1))))))
(check-sat)